TCS_Benchmarks/redos_fix/regexlib2_output_distinct_3388_3387_270_0.txt
[A-Fa-f0-9]
([!\@&'(\$)*+,A-Z.a-z\\-_:0-9=~]+|(%[A-Fa-f0-9][A-Fa-f0-9]))*